
Welcome to IBM(R) ILOG(R) CPLEX(R) Interactive Optimizer 22.1.1.0
  with Simplex, Mixed Integer & Barrier Optimizers
5725-A06 5725-A29 5724-Y48 5724-Y49 5724-Y54 5724-Y55 5655-Y21
Copyright IBM Corp. 1988, 2022.  All Rights Reserved.

Type 'help' for a list of available commands.
Type 'help' followed by a command name for more
information on commands.

CPLEX> Selected objective sense:  MINIMIZE
Selected objective  name:  00000000
Selected RHS        name:  RHS1
Selected bound      name:  BOUND
Problem 'ee.mps' read.
Read time = 0.03 sec. (3.14 ticks)
CPLEX> New value for time limit in seconds: 7200
CPLEX> New value for parallel optimization mode: -1
CPLEX> New value for default parallel thread count: 40
CPLEX> New value for mixed integer optimality gap tolerance: 1e-13
CPLEX> Version identifier: 22.1.1.0 | 2022-11-28 | 9160aff4d
CPXPARAM_Threads                                 40
CPXPARAM_Parallel                                -1
CPXPARAM_TimeLimit                               7200
CPXPARAM_MIP_Tolerances_MIPGap                   1e-13
Found incumbent of value 0.000000 after 0.00 sec. (0.31 ticks)
Tried aggregator 2 times.
MIP Presolve eliminated 179 rows and 2745 columns.
MIP Presolve modified 5862 coefficients.
Aggregator did 713 substitutions.
Reduced MIP has 3623 rows, 7739 columns, and 28643 nonzeros.
Reduced MIP has 7739 binaries, 0 generals, 0 SOSs, and 0 indicators.
Presolve time = 0.07 sec. (68.55 ticks)
Probing time = 0.03 sec. (5.29 ticks)
Tried aggregator 1 time.
Detecting symmetries...
Reduced MIP has 3623 rows, 7739 columns, and 28643 nonzeros.
Reduced MIP has 7739 binaries, 0 generals, 0 SOSs, and 0 indicators.
Presolve time = 0.02 sec. (21.86 ticks)
Probing time = 0.02 sec. (5.10 ticks)
Clique table members: 18551.
MIP emphasis: balance optimality and feasibility.
MIP search method: dynamic search.
Parallel mode: opportunistic, using up to 40 threads.
Root relaxation solution time = 0.11 sec. (97.15 ticks)

        Nodes                                         Cuts/
   Node  Left     Objective  IInf  Best Integer    Best Bound    ItCnt     Gap

*     0+    0                            0.0000  -1.31000e+13              --- 
*     0+    0                      -8.69000e+12  -1.31000e+13            50.75%
*     0+    0                      -9.90000e+12  -1.31000e+13            32.32%
*     0+    0                      -1.10000e+13  -1.31000e+13            19.09%
*     0+    0                      -1.21000e+13  -1.31000e+13             8.26%
*     0+    0                      -1.30900e+13  -1.31000e+13             0.08%
      0     0  -1.30900e+13    24  -1.30900e+13  -1.30900e+13     2039    0.00%
*     0+    0                      -1.30900e+13  -1.30900e+13             0.00%
      0     0  -1.30900e+13   125  -1.30900e+13      Cuts: 45     2261    0.00%
*     0+    0                      -1.30900e+13  -1.30900e+13             0.00%
      0     0  -1.30900e+13    89  -1.30900e+13      Cuts: 80     2965    0.00%
      0     0  -1.30900e+13   142  -1.30900e+13      Cuts: 58     3036    0.00%
*     0+    0                      -1.30900e+13  -1.30900e+13             0.00%

Repeating presolve.
Tried aggregator 3 times.
MIP Presolve eliminated 1302 rows and 3195 columns.
MIP Presolve modified 130 coefficients.
Aggregator did 289 substitutions.
Reduced MIP has 2032 rows, 4229 columns, and 15184 nonzeros.
Reduced MIP has 4229 binaries, 0 generals, 0 SOSs, and 0 indicators.
Presolve time = 0.08 sec. (84.18 ticks)
Probing fixed 5 vars, tightened 0 bounds.
Probing time = 0.04 sec. (15.61 ticks)
Tried aggregator 1 time.
Detecting symmetries...
MIP Presolve eliminated 15 rows and 16 columns.
Reduced MIP has 2017 rows, 4210 columns, and 15116 nonzeros.
Reduced MIP has 4210 binaries, 0 generals, 0 SOSs, and 0 indicators.
Presolve time = 0.02 sec. (17.00 ticks)
Represolve time = 0.15 sec. (132.59 ticks)
Probing time = 0.04 sec. (12.35 ticks)
Clique table members: 10025.
MIP emphasis: balance optimality and feasibility.
MIP search method: dynamic search.
Parallel mode: opportunistic, using up to 40 threads.
Root relaxation solution time = 0.08 sec. (50.02 ticks)

        Nodes                                         Cuts/
   Node  Left     Objective  IInf  Best Integer    Best Bound    ItCnt     Gap

*     0+    0                      -1.30900e+13  -1.30900e+13             0.00%
      0     0  -1.30900e+13    91  -1.30900e+13  -1.30900e+13     4479    0.00%
      0     0  -1.30900e+13   105  -1.30900e+13      Cuts: 62     4615    0.00%
      0     0  -1.30900e+13   102  -1.30900e+13      Cuts: 52     4675    0.00%
      0     0  -1.30900e+13   120  -1.30900e+13      Cuts: 36     4714    0.00%
      0     2    infeasible        -1.30900e+13  -1.30900e+13     5343    0.00%
Elapsed time = 2.28 sec. (1336.76 ticks, tree = 0.02 MB, solutions = 10)
*   132    72      integral     0  -1.30900e+13  -1.30900e+13    19689    0.00%
   1076    67  -1.30900e+13    84  -1.30900e+13  -1.30900e+13    48220    0.00%
   3424    32  -1.30900e+13    74  -1.30900e+13  -1.30900e+13   103090    0.00%
   5281    70  -1.30900e+13   107  -1.30900e+13  -1.30900e+13   142237    0.00%
   6645    52  -1.30900e+13   131  -1.30900e+13  -1.30900e+13   218911    0.00%
   6953     8        cutoff        -1.30900e+13  -1.30900e+13   302564    0.00%

GUB cover cuts applied:  3
Clique cuts applied:  18
Cover cuts applied:  402
Mixed integer rounding cuts applied:  4
Zero-half cuts applied:  11
Lift and project cuts applied:  13
Gomory fractional cuts applied:  22

Root node processing (before b&c):
  Real time             =    1.93 sec. (1337.19 ticks)
Parallel b&c, 40 threads:
  Real time             =    2.67 sec. (1201.23 ticks)
  Sync time (average)   =    1.03 sec.
  Wait time (average)   =    0.00 sec.
                          ------------
Total (root+branch&cut) =    4.60 sec. (2538.43 ticks)

Solution pool: 20 solutions saved.

MIP - Integer optimal solution:  Objective = -1.3089999690e+13
Solution time =    4.70 sec.  Iterations = 304330  Nodes = 6957
Deterministic time = 2538.46 ticks  (539.91 ticks/sec)

CPLEX> Solution 'p21' written to file 'ee.sol'.
CPLEX> 